NAME: QueenslandCities
TYPE: TSP
COMMENT: 46 cities in Queensland (Barczak)
DIMENSION: 46
EDGE_WEIGHT_TYPE: EUC_2D
NODE_COORD_SECTION
1 320 50
2 230 150
3 290 190
4 615 160
5 815 150
6 1120 150
7 1620 170
8 1580 225
9 1590 320
10 1140 330
11 870 350
12 660 320
13 550 320
14 140 420
15 490 480
16 1510 520
17 1470 610
18 1320 590
19 790 590
20 530 540
21 160 570
22 200 760
23 500 720
24 660 700
25 770 690
26 1070 690
27 1320 730
28 1400 660
29 1340 730
30 1060 870
31 530 820
32 160 1010
33 1180 930
34 1180 970
35 10 1100
36 1130 1060
37 1080 1090
38 920 1170
39 10 1200
40 160 1340
41 780 1420
42 820 1430
43 790 1470
44 790 1510
45 760 1620
46 420 1880
EOF

